sat
(= |goto_symex::&92;guard#1| true)
(= |goto_symex::&92;guard#2| false)
(= |memory_model::choice_rf_1_41_0_10_T_0| false)
(= |memory_model::choice_rf_1_41_2_20_T_1| false)
(= |memory_model::choice_rf_1_41_3_37_T_2| true)
(= |memory_model::choice_rf_2_19_0_10_T_3| true)
(= |memory_model::choice_rf_2_19_1_42_T_4| false)
(= |memory_model::choice_rf_2_19_3_37_T_5| false)
(= |memory_model::choice_rf_3_36_0_10_T_6| false)
(= |memory_model::choice_rf_3_36_1_42_T_7| false)
(= |memory_model::choice_rf_3_36_2_20_T_8| true)
(= |memory_model::choice_rf_0_47_0_8_T_9| false)
(= |memory_model::choice_rf_0_47_0_43_T_10| true)
(= |memory_model::choice_rf_0_52_0_8_T_11| false)
(= |memory_model::choice_rf_0_52_0_43_T_12| false)
(= |memory_model::choice_rf_0_52_0_48_T_13| true)
(= |memory_model::choice_rf_1_19_0_39_F_14| false)
(= |memory_model::choice_rf_1_22_0_39_F_15| false)
(= |memory_model::choice_rf_1_22_1_20_F_16| true)
(= |memory_model::choice_rf_0_56_0_11_F_17| false)
(= |memory_model::choice_rf_0_56_1_40_F_18| false)
(= |memory_model::choice_rf_0_56_2_18_F_19| false)
(= |memory_model::choice_rf_0_56_3_35_F_20| true)
(= |memory_model::choice_rf_1_39_0_11_F_21| false)
(= |memory_model::choice_rf_1_39_2_18_F_22| true)
(= |memory_model::choice_rf_1_39_3_35_F_23| false)
(= |memory_model::choice_rf_2_17_0_11_F_24| true)
(= |memory_model::choice_rf_2_17_1_40_F_25| false)
(= |memory_model::choice_rf_2_17_3_35_F_26| false)
(= |memory_model::choice_rf_3_34_0_11_F_27| false)
(= |memory_model::choice_rf_3_34_1_40_F_28| true)
(= |memory_model::choice_rf_3_34_2_18_F_29| false)
(= |memory_model::choice_rf_0_77_0_12_F_30| false)
(= |memory_model::choice_rf_0_77_1_23_F_31| true)
(= |memory_model::choice_rf_1_21_0_12_F_32| false)
(= |memory_model::choice_rf_0_74_0_13_F_33| false)
(= |memory_model::choice_rf_0_74_1_26_F_34| true)
(= |memory_model::choice_rf_1_24_0_13_F_35| false)
(= |memory_model::choice_rf_0_73_0_14_F_36| false)
(= |memory_model::choice_rf_0_73_2_2_F_37| true)
(= |memory_model::choice_rf_0_76_0_15_F_38| false)
(= |memory_model::choice_rf_0_76_2_4_F_39| true)
(= |memory_model::choice_rf_0_75_0_16_F_40| false)
(= |memory_model::choice_rf_0_75_3_2_F_41| true)
(= |memory_model::choice_rf_0_72_0_17_F_42| false)
(= |memory_model::choice_rf_0_72_3_15_F_43| true)
(= |memory_model::choice_rf_0_59_0_18_F_44| false)
(= |memory_model::choice_rf_0_59_1_38_F_45| false)
(= |memory_model::choice_rf_0_59_2_16_F_46| false)
(= |memory_model::choice_rf_0_59_3_16_F_47| false)
(= |memory_model::choice_rf_0_59_3_33_F_48| true)
(= |memory_model::choice_rf_1_27_0_18_F_49| false)
(= |memory_model::choice_rf_1_27_0_70_F_50| false)
(= |memory_model::choice_rf_1_27_2_16_F_51| true)
(= |memory_model::choice_rf_1_27_3_16_F_52| false)
(= |memory_model::choice_rf_1_27_3_33_F_53| false)
(= |memory_model::choice_rf_2_5_0_18_F_54| false)
(= |memory_model::choice_rf_2_5_0_70_F_55| false)
(= |memory_model::choice_rf_2_5_1_38_F_56| false)
(= |memory_model::choice_rf_2_5_3_16_F_57| true)
(= |memory_model::choice_rf_2_5_3_33_F_58| false)
(= |memory_model::choice_rf_3_9_0_18_F_59| true)
(= |memory_model::choice_rf_3_9_0_70_F_60| false)
(= |memory_model::choice_rf_3_9_1_38_F_61| false)
(= |memory_model::choice_rf_3_9_2_16_F_62| false)
(= |memory_model::choice_rf_3_22_0_18_F_63| false)
(= |memory_model::choice_rf_3_22_0_70_F_64| false)
(= |memory_model::choice_rf_3_22_1_38_F_65| true)
(= |memory_model::choice_rf_3_22_2_16_F_66| false)
(= |memory_model::choice_rf_3_22_3_16_F_67| false)
(= |memory_model::choice_rf_0_64_0_21_F_68| true)
(= |memory_model::choice_rf_1_5_0_21_F_69| true)
(= |memory_model::choice_rf_1_5_0_67_F_70| false)
(= |memory_model::choice_rf_1_4_0_22_F_71| true)
(= |memory_model::choice_rf_1_32_0_22_F_72| false)
(= |memory_model::choice_rf_1_32_1_10_F_73| true)
(= |memory_model::choice_rf_1_1_0_23_F_74| true)
(= |memory_model::choice_rf_1_1_2_12_F_75| false)
(= |memory_model::choice_rf_2_9_0_23_F_76| true)
(= |memory_model::choice_rf_1_0_0_24_F_77| true)
(= |memory_model::choice_rf_1_0_3_18_F_78| false)
(= |memory_model::choice_rf_1_0_3_29_F_79| false)
(= |memory_model::choice_rf_3_6_0_24_F_80| true)
(= |memory_model::choice_rf_3_26_0_24_F_81| false)
(= |memory_model::choice_rf_3_26_3_18_F_82| true)
(= |memory_model::choice_rf_0_61_0_25_F_83| false)
(= |memory_model::choice_rf_0_61_1_12_F_84| true)
(= |memory_model::choice_rf_1_3_0_25_F_85| false)
(= |memory_model::choice_rf_1_3_0_66_F_86| false)
(= |memory_model::choice_rf_1_2_0_26_F_87| false)
(= |memory_model::choice_rf_1_29_0_26_F_88| false)
(= |memory_model::choice_rf_1_29_1_11_F_89| true)
(= |memory_model::choice_rf_1_7_0_27_F_90| false)
(= |memory_model::choice_rf_1_7_2_14_F_91| false)
(= |memory_model::choice_rf_2_10_0_27_F_92| false)
(= |memory_model::choice_rf_2_10_1_14_F_93| true)
(= |memory_model::choice_rf_1_6_0_28_F_94| false)
(= |memory_model::choice_rf_1_6_3_11_F_95| false)
(= |memory_model::choice_rf_1_6_3_31_F_96| false)
(= |memory_model::choice_rf_3_7_0_28_F_97| false)
(= |memory_model::choice_rf_3_7_1_13_F_98| true)
(= |memory_model::choice_rf_3_27_0_28_F_99| false)
(= |memory_model::choice_rf_3_27_1_13_F_100| false)
(= |memory_model::choice_rf_3_27_3_11_F_101| true)
(= |memory_model::choice_rf_0_63_0_31_F_102| false)
(= |memory_model::choice_rf_0_63_1_17_F_103| false)
(= |memory_model::choice_rf_0_63_3_14_F_104| true)
(= |memory_model::choice_rf_1_9_0_31_F_105| true)
(= |memory_model::choice_rf_1_9_3_14_F_106| false)
(= |memory_model::choice_rf_1_31_0_31_F_107| false)
(= |memory_model::choice_rf_1_31_1_17_F_108| false)
(= |memory_model::choice_rf_1_31_3_14_F_109| true)
(= |memory_model::choice_rf_2_8_0_31_F_110| false)
(= |memory_model::choice_rf_2_8_1_17_F_111| false)
(= |memory_model::choice_rf_2_8_3_14_F_112| true)
(= |memory_model::choice_rf_3_4_0_31_F_113| false)
(= |memory_model::choice_rf_3_4_1_17_F_114| true)
(= |memory_model::choice_rf_3_25_0_31_F_115| false)
(= |memory_model::choice_rf_3_25_1_17_F_116| false)
(= |memory_model::choice_rf_3_25_3_14_F_117| true)
(= |memory_model::choice_rf_0_65_0_32_F_118| false)
(= |memory_model::choice_rf_0_65_1_15_F_119| false)
(= |memory_model::choice_rf_0_65_1_37_F_120| false)
(= |memory_model::choice_rf_0_65_2_15_F_121| false)
(= |memory_model::choice_rf_0_65_3_12_F_122| false)
(= |memory_model::choice_rf_0_65_3_32_F_123| true)
(= |memory_model::choice_rf_1_8_0_32_F_124| true)
(= |memory_model::choice_rf_1_8_0_69_F_125| false)
(= |memory_model::choice_rf_1_8_2_15_F_126| false)
(= |memory_model::choice_rf_1_8_3_12_F_127| false)
(= |memory_model::choice_rf_1_8_3_32_F_128| false)
(= |memory_model::choice_rf_1_33_0_32_F_129| false)
(= |memory_model::choice_rf_1_33_0_69_F_130| false)
(= |memory_model::choice_rf_1_33_1_15_F_131| false)
(= |memory_model::choice_rf_1_33_2_15_F_132| true)
(= |memory_model::choice_rf_1_33_3_12_F_133| false)
(= |memory_model::choice_rf_1_33_3_32_F_134| false)
(= |memory_model::choice_rf_2_11_0_32_F_135| false)
(= |memory_model::choice_rf_2_11_0_69_F_136| false)
(= |memory_model::choice_rf_2_11_1_15_F_137| false)
(= |memory_model::choice_rf_2_11_1_37_F_138| false)
(= |memory_model::choice_rf_2_11_3_12_F_139| true)
(= |memory_model::choice_rf_2_11_3_32_F_140| false)
(= |memory_model::choice_rf_3_8_0_32_F_141| false)
(= |memory_model::choice_rf_3_8_0_69_F_142| false)
(= |memory_model::choice_rf_3_8_1_15_F_143| true)
(= |memory_model::choice_rf_3_8_1_37_F_144| false)
(= |memory_model::choice_rf_3_8_2_15_F_145| false)
(= |memory_model::choice_rf_3_28_0_32_F_146| false)
(= |memory_model::choice_rf_3_28_0_69_F_147| false)
(= |memory_model::choice_rf_3_28_1_15_F_148| false)
(= |memory_model::choice_rf_3_28_1_37_F_149| true)
(= |memory_model::choice_rf_3_28_2_15_F_150| false)
(= |memory_model::choice_rf_3_28_3_12_F_151| false)
(= |memory_model::choice_rf_0_60_0_33_F_152| false)
(= |memory_model::choice_rf_0_60_1_18_F_153| false)
(= |memory_model::choice_rf_0_60_3_13_F_154| true)
(= |memory_model::choice_rf_1_28_0_33_F_155| false)
(= |memory_model::choice_rf_1_28_1_18_F_156| false)
(= |memory_model::choice_rf_1_28_3_13_F_157| true)
(= |memory_model::choice_rf_2_6_0_33_F_158| false)
(= |memory_model::choice_rf_2_6_1_18_F_159| false)
(= |memory_model::choice_rf_2_6_3_13_F_160| true)
(= |memory_model::choice_rf_3_3_0_33_F_161| false)
(= |memory_model::choice_rf_3_3_1_18_F_162| true)
(= |memory_model::choice_rf_3_23_0_33_F_163| false)
(= |memory_model::choice_rf_3_23_1_18_F_164| false)
(= |memory_model::choice_rf_3_23_3_13_F_165| true)
(= |memory_model::choice_rf_0_62_0_34_F_166| false)
(= |memory_model::choice_rf_0_62_1_16_F_167| false)
(= |memory_model::choice_rf_0_62_1_36_F_168| false)
(= |memory_model::choice_rf_0_62_2_13_F_169| false)
(= |memory_model::choice_rf_0_62_3_10_F_170| false)
(= |memory_model::choice_rf_0_62_3_30_F_171| true)
(= |memory_model::choice_rf_1_30_0_34_F_172| false)
(= |memory_model::choice_rf_1_30_0_68_F_173| false)
(= |memory_model::choice_rf_1_30_1_16_F_174| false)
(= |memory_model::choice_rf_1_30_2_13_F_175| true)
(= |memory_model::choice_rf_1_30_3_10_F_176| false)
(= |memory_model::choice_rf_1_30_3_30_F_177| false)
(= |memory_model::choice_rf_2_7_0_34_F_178| false)
(= |memory_model::choice_rf_2_7_0_68_F_179| false)
(= |memory_model::choice_rf_2_7_1_16_F_180| false)
(= |memory_model::choice_rf_2_7_1_36_F_181| false)
(= |memory_model::choice_rf_2_7_3_10_F_182| true)
(= |memory_model::choice_rf_2_7_3_30_F_183| false)
(= |memory_model::choice_rf_3_5_0_34_F_184| false)
(= |memory_model::choice_rf_3_5_0_68_F_185| false)
(= |memory_model::choice_rf_3_5_1_16_F_186| true)
(= |memory_model::choice_rf_3_5_1_36_F_187| false)
(= |memory_model::choice_rf_3_5_2_13_F_188| false)
(= |memory_model::choice_rf_3_24_0_34_F_189| false)
(= |memory_model::choice_rf_3_24_0_68_F_190| false)
(= |memory_model::choice_rf_3_24_1_16_F_191| false)
(= |memory_model::choice_rf_3_24_1_36_F_192| true)
(= |memory_model::choice_rf_3_24_2_13_F_193| false)
(= |memory_model::choice_rf_3_24_3_10_F_194| false)
(= |memory_model::choice_rf_0_58_0_35_F_195| false)
(= |memory_model::choice_rf_0_58_0_57_F_196| true)
(= |memory_model::choice_rf_0_71_0_36_F_197| false)
(= |memory_model::choice_rf_0_79_0_36_F_198| false)
(= |memory_model::choice_rf_0_79_0_78_F_199| true)
(= |memory_model::choice_rf_0_80_0_36_F_200| false)
(= |memory_model::choice_rf_0_80_0_78_F_201| true)
(= |memory_model::choice_rf_1_25_0_40_F_202| true)
(= |memory_model::choice_rf_1_25_2_0_F_203| false)
(= |memory_model::choice_rf_2_1_0_40_F_204| false)
(= |memory_model::choice_rf_2_1_2_0_F_205| true)
(= |memory_model::choice_rf_2_3_0_41_F_206| true)
(= |memory_model::choice_rf_2_3_3_0_F_207| false)
(= |memory_model::choice_rf_3_1_0_41_F_208| false)
(= |memory_model::choice_rf_3_1_3_0_F_209| true)
(= |memory_model::choice_ws-ext_0_10_1_42_T_210| true)
(= |memory_model::choice_ws-ext_0_10_2_20_T_211| true)
(= |memory_model::choice_ws-ext_0_10_3_37_T_212| true)
(= |memory_model::choice_ws-ext_1_42_2_20_T_213| false)
(= |memory_model::choice_ws-ext_1_42_3_37_T_214| false)
(= |memory_model::choice_ws-ext_2_20_3_37_T_215| true)
(= |memory_model::choice_ws-ext_0_39_1_20_F_216| true)
(= |memory_model::choice_ws-ext_0_11_1_40_F_217| true)
(= |memory_model::choice_ws-ext_0_11_2_18_F_218| true)
(= |memory_model::choice_ws-ext_0_11_3_35_F_219| true)
(= |memory_model::choice_ws-ext_1_40_2_18_F_220| false)
(= |memory_model::choice_ws-ext_1_40_3_35_F_221| true)
(= |memory_model::choice_ws-ext_2_18_3_35_F_222| true)
(= |memory_model::choice_ws-ext_0_12_1_23_F_223| true)
(= |memory_model::choice_ws-ext_0_13_1_26_F_224| true)
(= |memory_model::choice_ws-ext_0_14_2_2_F_225| true)
(= |memory_model::choice_ws-ext_0_15_2_4_F_226| true)
(= |memory_model::choice_ws-ext_0_16_3_2_F_227| true)
(= |memory_model::choice_ws-ext_0_17_3_15_F_228| true)
(= |memory_model::choice_ws-ext_0_18_1_38_F_229| true)
(= |memory_model::choice_ws-ext_0_18_2_16_F_230| true)
(= |memory_model::choice_ws-ext_0_18_3_16_F_231| true)
(= |memory_model::choice_ws-ext_0_18_3_33_F_232| true)
(= |memory_model::choice_ws-ext_0_70_1_38_F_233| false)
(= |memory_model::choice_ws-ext_0_70_2_16_F_234| false)
(= |memory_model::choice_ws-ext_0_70_3_16_F_235| false)
(= |memory_model::choice_ws-ext_0_70_3_33_F_236| false)
(= |memory_model::choice_ws-ext_1_38_2_16_F_237| false)
(= |memory_model::choice_ws-ext_1_38_3_16_F_238| false)
(= |memory_model::choice_ws-ext_1_38_3_33_F_239| true)
(= |memory_model::choice_ws-ext_2_16_3_16_F_240| false)
(= |memory_model::choice_ws-ext_2_16_3_33_F_241| true)
(= |memory_model::choice_ws-ext_0_19_3_19_F_242| true)
(= |memory_model::choice_ws-ext_0_20_3_17_F_243| true)
(= |memory_model::choice_ws-ext_0_22_1_10_F_244| true)
(= |memory_model::choice_ws-ext_0_22_1_35_F_245| true)
(= |memory_model::choice_ws-ext_0_23_2_12_F_246| true)
(= |memory_model::choice_ws-ext_0_24_3_18_F_247| true)
(= |memory_model::choice_ws-ext_0_24_3_29_F_248| true)
(= |memory_model::choice_ws-ext_0_25_1_12_F_249| true)
(= |memory_model::choice_ws-ext_0_66_1_12_F_250| false)
(= |memory_model::choice_ws-ext_0_26_1_11_F_251| true)
(= |memory_model::choice_ws-ext_0_26_1_34_F_252| true)
(= |memory_model::choice_ws-ext_0_27_1_14_F_253| true)
(= |memory_model::choice_ws-ext_0_27_2_14_F_254| true)
(= |memory_model::choice_ws-ext_1_14_2_14_F_255| true)
(= |memory_model::choice_ws-ext_0_28_1_13_F_256| true)
(= |memory_model::choice_ws-ext_0_28_3_11_F_257| true)
(= |memory_model::choice_ws-ext_0_28_3_31_F_258| true)
(= |memory_model::choice_ws-ext_1_13_3_11_F_259| true)
(= |memory_model::choice_ws-ext_1_13_3_31_F_260| true)
(= |memory_model::choice_ws-ext_0_31_1_17_F_261| true)
(= |memory_model::choice_ws-ext_0_31_3_14_F_262| true)
(= |memory_model::choice_ws-ext_1_17_3_14_F_263| true)
(= |memory_model::choice_ws-ext_0_32_1_15_F_264| true)
(= |memory_model::choice_ws-ext_0_32_1_37_F_265| true)
(= |memory_model::choice_ws-ext_0_32_2_15_F_266| true)
(= |memory_model::choice_ws-ext_0_32_3_12_F_267| true)
(= |memory_model::choice_ws-ext_0_32_3_32_F_268| true)
(= |memory_model::choice_ws-ext_0_69_1_15_F_269| false)
(= |memory_model::choice_ws-ext_0_69_1_37_F_270| false)
(= |memory_model::choice_ws-ext_0_69_2_15_F_271| false)
(= |memory_model::choice_ws-ext_0_69_3_12_F_272| false)
(= |memory_model::choice_ws-ext_0_69_3_32_F_273| false)
(= |memory_model::choice_ws-ext_1_15_2_15_F_274| true)
(= |memory_model::choice_ws-ext_1_15_3_12_F_275| true)
(= |memory_model::choice_ws-ext_1_15_3_32_F_276| true)
(= |memory_model::choice_ws-ext_1_37_2_15_F_277| false)
(= |memory_model::choice_ws-ext_1_37_3_12_F_278| false)
(= |memory_model::choice_ws-ext_1_37_3_32_F_279| true)
(= |memory_model::choice_ws-ext_2_15_3_12_F_280| false)
(= |memory_model::choice_ws-ext_2_15_3_32_F_281| true)
(= |memory_model::choice_ws-ext_0_33_1_18_F_282| true)
(= |memory_model::choice_ws-ext_0_33_3_13_F_283| true)
(= |memory_model::choice_ws-ext_1_18_3_13_F_284| true)
(= |memory_model::choice_ws-ext_0_34_1_16_F_285| true)
(= |memory_model::choice_ws-ext_0_34_1_36_F_286| true)
(= |memory_model::choice_ws-ext_0_34_2_13_F_287| true)
(= |memory_model::choice_ws-ext_0_34_3_10_F_288| true)
(= |memory_model::choice_ws-ext_0_34_3_30_F_289| true)
(= |memory_model::choice_ws-ext_0_68_1_16_F_290| false)
(= |memory_model::choice_ws-ext_0_68_1_36_F_291| false)
(= |memory_model::choice_ws-ext_0_68_2_13_F_292| false)
(= |memory_model::choice_ws-ext_0_68_3_10_F_293| false)
(= |memory_model::choice_ws-ext_0_68_3_30_F_294| false)
(= |memory_model::choice_ws-ext_1_16_2_13_F_295| true)
(= |memory_model::choice_ws-ext_1_16_3_10_F_296| true)
(= |memory_model::choice_ws-ext_1_16_3_30_F_297| true)
(= |memory_model::choice_ws-ext_1_36_2_13_F_298| false)
(= |memory_model::choice_ws-ext_1_36_3_10_F_299| false)
(= |memory_model::choice_ws-ext_1_36_3_30_F_300| true)
(= |memory_model::choice_ws-ext_2_13_3_10_F_301| false)
(= |memory_model::choice_ws-ext_2_13_3_30_F_302| true)
(= |memory_model::choice_ws-ext_0_40_2_0_F_303| true)
(= |memory_model::choice_ws-ext_0_41_3_0_F_304| true)
(= |memory_model::choice_ws-ext_0_37_3_21_F_305| true)
(= |memory_model::choice_ws-ext_0_38_3_20_F_306| true)
(= |main$tmp_guard0#3| #b00000001)
(= |__CPROVER_next_thread_id#3| #b00000000000000000000000000000001)
(= |__CPROVER_next_thread_id#6| #b00000000000000000000000000000010)
(= |__unbuffered_cnt#2| #b00000000000000000000000000000011)
(= |a$w_buff0_used#2| #b00000000)
(= |a$r_buff0_thd0#2| #b00000000)
(= |a$w_buff0#2| #b00000000000000000000000000000001)
(= |a$w_buff1_used#2| #b00000000)
(= |a$r_buff1_thd0#2| #b00000000)
(= |a$w_buff1#2| #b00000000000000000000000000000000)
(= |a#2| #b00000000000000000000000000000001)
(= |a#4| #b00000000000000000000000000000001)
(= |a$w_buff0_used#6| #b00000000)
(= |a$w_buff1_used#6| #b00000000)
(= |a$r_buff0_thd0#8| #b00000000)
(= |a$r_buff1_thd0#7| #b00000000)
(= |__unbuffered_p0_EAX#2| #b00000000000000000000000000000001)
(= |__unbuffered_p0_EBX#2| #b00000000000000000000000000000000)
(= |__unbuffered_p1_EAX#2| #b00000000000000000000000000000001)
(= |__unbuffered_p1_EBX#2| #b00000000000000000000000000000000)
(= |__unbuffered_p2_EAX#2| #b00000000000000000000000000000001)
(= |__unbuffered_p2_EBX#2| #b00000000000000000000000000000000)
(= |main$tmp_guard1#2| #b00000000)
(= |main$tmp_guard1#3| #b10000000)
(= |main$tmp_guard1#6| #b00000000)
(= |pthread_create::1::this_thread_id!1@0#0| #b00000000000000000000000000000000)
(= |a$w_buff0#4| #b00000000000000000000000000000000)
(= |a$w_buff0_used#11| #b00000000)
(= |a$r_buff0_thd0#11| #b00000000)
(= |a$r_buff1_thd0#9| #b00000000)
(= |a$r_buff1_thd0#10| #b10000000)
(= |a$r_buff0_thd1#2| #b00000000)
(= |a$r_buff1_thd1#2| #b00000000)
(= |a$r_buff1_thd1#3| #b10000000)
(= |a$r_buff0_thd2#2| #b00000000)
(= |a$r_buff1_thd2#2| #b00000000)
(= |a$r_buff1_thd2#3| #b10000000)
(= |a$r_buff0_thd3#2| #b00000000)
(= |a$r_buff1_thd3#2| #b00000000)
(= |a$r_buff1_thd3#3| #b10000000)
(= |a$r_buff0_thd1#4| #b00000001)
(= |x#2| #b00000000000000000000000000000001)
(= |x#3| #b10000000000000000000000000000000)
(= |x#5| #b00000000000000000000000000000001)
(= |__unbuffered_p0_EAX#4| #b00000000000000000000000000000001)
(= |__unbuffered_p0_EAX#5| #b10000000000000000000000000000000)
(= |y#2| #b00000000000000000000000000000000)
(= |__unbuffered_p0_EBX#4| #b00000000000000000000000000000000)
(= |__unbuffered_p0_EBX#5| #b10000000000000000000000000000000)
(= |a$w_buff0_used#14| #b00000001)
(= |a$r_buff0_thd1#6| #b00000001)
(= |a$w_buff0#7| #b00000000000000000000000000000001)
(= |a$w_buff1_used#10| #b00000000)
(= |a$r_buff1_thd1#5| #b00000000)
(= |a$w_buff1#5| #b00000000000000000000000000000000)
(= |a#6| #b00000000000000000000000000000000)
(= |a#8| #b00000000000000000000000000000001)
(= |a$w_buff0_used#18| #b00000000)
(= |a$w_buff1_used#14| #b00000000)
(= |a$r_buff0_thd1#12| #b00000001)
(= |a$r_buff1_thd1#10| #b00000000)
(= |__unbuffered_cnt#4| #b00000000000000000000000000000001)
(= |__unbuffered_cnt#6| #b00000000000000000000000000000010)
(= |pthread_create::1::this_thread_id!2@0#0| #b00000000000000000000000000000000)
(= |y#5| #b00000000000000000000000000000001)
(= |z#2| #b00000000000000000000000000000000)
(= |a$w_buff0_used#23| #b00000001)
(= |a$r_buff0_thd2#4| #b00000000)
(= |a$w_buff0#9| #b00000000000000000000000000000001)
(= |a$w_buff1_used#17| #b00000000)
(= |a$r_buff1_thd2#5| #b00000000)
(= |a$w_buff1#7| #b00000000000000000000000000000000)
(= |a#10| #b00000000000000000000000000000000)
(= |__unbuffered_cnt#8| #b00000000000000000000000000000000)
(= |pthread_create::1::this_thread_id!3@0#0| #b10000000000000000000000000000000)
(= |z#5| #b00000000000000000000000000000001)
(= |nondet_symex::nondet3| #b00000000000000000000000000000000)
(= |a#13| #b00000000000000000000000000000000)
(= |a$w_buff0_used#26| #b00000001)
(= |a$r_buff0_thd3#4| #b00000000)
(= |a$w_buff1_used#20| #b00000000)
(= |a$r_buff1_thd3#5| #b00000000)
(= |a$w_buff0#11| #b00000000000000000000000000000001)
(= |a$w_buff1#9| #b00000000000000000000000000000000)
(= |a$w_buff0_used#29| #b00000000)
(= |a$r_buff0_thd3#7| #b00000000)
(= |a$w_buff0#14| #b00000000000000000000000000000001)
(= |a$w_buff1_used#23| #b00000000)
(= |a$r_buff1_thd3#8| #b00000000)
(= |a$w_buff1#12| #b00000000000000000000000000000000)
(= |a#17| #b00000000000000000000000000000001)
(= |__unbuffered_cnt#11| #b00000000000000000000000000000010)
(= |__CPROVER_threads_exited#1$wclk$8| #b01000000)
(= |__CPROVER_threads_exited#2$rclk$8| #b11111110)
(= |__CPROVER_threads_exited#5$wclk$8| #b11110111)
(= |__CPROVER_threads_exited#7$wclk$8| #b11111011)
(= |__CPROVER_threads_exited#4$rclk$8| #b11110100)
(= |__CPROVER_threads_exited#3$wclk$8| #b11111111)
(= |__CPROVER_threads_exited#6$rclk$8| #b11111010)
(= |x#1$wclk$8| #b10111001)
(= |x#3$rclk$8| #b11010101)
(= |x#5$rclk$8| #b11010110)
(= |__unbuffered_cnt#7$wclk$8| #b11110001)
(= |__unbuffered_cnt#2$rclk$8| #b11110011)
(= |__unbuffered_cnt#10$wclk$8| #b11110000)
(= |__unbuffered_cnt#13$wclk$8| #b11110010)
(= |__unbuffered_cnt#1$wclk$8| #b10000001)
(= |__unbuffered_cnt#4$rclk$8| #b11110001)
(= |__unbuffered_cnt#8$rclk$8| #b11110000)
(= |__unbuffered_cnt#11$rclk$8| #b11110010)
(= |__unbuffered_p0_EAX#6$wclk$8| #b11010110)
(= |__unbuffered_p0_EAX#2$rclk$8| #b11110110)
(= |__unbuffered_p0_EAX#1$wclk$8| #b10000010)
(= |__unbuffered_p0_EAX#5$rclk$8| #b11010110)
(= |__unbuffered_p0_EBX#6$wclk$8| #b11010111)
(= |__unbuffered_p0_EBX#2$rclk$8| #b11110110)
(= |__unbuffered_p0_EBX#1$wclk$8| #b10000100)
(= |__unbuffered_p0_EBX#5$rclk$8| #b11010111)
(= |__unbuffered_p1_EAX#4$wclk$8| #b11100110)
(= |__unbuffered_p1_EAX#2$rclk$8| #b11110110)
(= |__unbuffered_p1_EBX#4$wclk$8| #b11100111)
(= |__unbuffered_p1_EBX#2$rclk$8| #b11110110)
(= |__unbuffered_p2_EAX#4$wclk$8| #b11101011)
(= |__unbuffered_p2_EAX#2$rclk$8| #b11110110)
(= |__unbuffered_p2_EBX#4$wclk$8| #b11101100)
(= |__unbuffered_p2_EBX#2$rclk$8| #b11110110)
(= |a#9$wclk$8| #b11110000)
(= |a#2$rclk$8| #b11110101)
(= |a#12$wclk$8| #b11101101)
(= |a#16$wclk$8| #b11101100)
(= |a#19$wclk$8| #b11110001)
(= |a#1$wclk$8| #b10100100)
(= |a#6$rclk$8| #b11110000)
(= |a#5$wclk$8| #b11110101)
(= |a#10$rclk$8| #b11101101)
(= |a#13$rclk$8| #b11101100)
(= |a#17$rclk$8| #b11110001)
(= |a$r_buff0_thd0#1$wclk$8| #b10100111)
(= |a$r_buff0_thd0#11$rclk$8| #b11010100)
(= |a$r_buff0_thd0#10$wclk$8| #b11110101)
(= |a$r_buff0_thd1#1$wclk$8| #b10101000)
(= |a$r_buff0_thd1#2$rclk$8| #b11010100)
(= |a$r_buff0_thd1#6$rclk$8| #b11110000)
(= |a$r_buff0_thd2#1$wclk$8| #b10101001)
(= |a$r_buff0_thd2#2$rclk$8| #b11010100)
(= |a$r_buff0_thd2#6$wclk$8| #b11101101)
(= |a$r_buff0_thd2#4$rclk$8| #b11101101)
(= |a$r_buff0_thd3#1$wclk$8| #b10101010)
(= |a$r_buff0_thd3#2$rclk$8| #b11010100)
(= |a$r_buff0_thd3#6$wclk$8| #b11101100)
(= |a$r_buff0_thd3#9$wclk$8| #b11110001)
(= |a$r_buff0_thd3#4$rclk$8| #b11101100)
(= |a$r_buff0_thd3#7$rclk$8| #b11110001)
(= |a$r_buff1_thd0#11$wclk$8| #b11010100)
(= |a$r_buff1_thd0#2$rclk$8| #b11110101)
(= |a$r_buff1_thd0#1$wclk$8| #b10101011)
(= |a$r_buff1_thd0#10$rclk$8| #b11010100)
(= |a$r_buff1_thd0#8$wclk$8| #b11110101)
(= |a$r_buff1_thd1#1$wclk$8| #b10101100)
(= |a$r_buff1_thd1#3$rclk$8| #b11010100)
(= |a$r_buff1_thd1#5$rclk$8| #b11110000)
(= |a$r_buff1_thd2#1$wclk$8| #b10101101)
(= |a$r_buff1_thd2#3$rclk$8| #b11010100)
(= |a$r_buff1_thd2#7$wclk$8| #b11101101)
(= |a$r_buff1_thd2#5$rclk$8| #b11101101)
(= |a$r_buff1_thd2#4$wclk$8| #b11010100)
(= |a$r_buff1_thd3#1$wclk$8| #b10101110)
(= |a$r_buff1_thd3#3$rclk$8| #b11010100)
(= |a$r_buff1_thd3#7$wclk$8| #b11101100)
(= |a$r_buff1_thd3#10$wclk$8| #b11110001)
(= |a$r_buff1_thd3#5$rclk$8| #b11101100)
(= |a$r_buff1_thd3#4$wclk$8| #b11010100)
(= |a$r_buff1_thd3#8$rclk$8| #b11110001)
(= |a$w_buff0#6$wclk$8| #b11010100)
(= |a$w_buff0#2$rclk$8| #b11110101)
(= |a$w_buff0#13$wclk$8| #b11101100)
(= |a$w_buff0#1$wclk$8| #b10110001)
(= |a$w_buff0#4$rclk$8| #b11010100)
(= |a$w_buff0#7$rclk$8| #b11110000)
(= |a$w_buff0#9$rclk$8| #b11101101)
(= |a$w_buff0#11$rclk$8| #b11101100)
(= |a$w_buff0#14$rclk$8| #b11110001)
(= |a$w_buff0_used#13$wclk$8| #b11010100)
(= |a$w_buff0_used#2$rclk$8| #b11110101)
(= |a$w_buff0_used#22$wclk$8| #b11110000)
(= |a$w_buff0_used#25$wclk$8| #b11101101)
(= |a$w_buff0_used#28$wclk$8| #b11101100)
(= |a$w_buff0_used#31$wclk$8| #b11110001)
(= |a$w_buff0_used#1$wclk$8| #b10110010)
(= |a$w_buff0_used#11$rclk$8| #b11010100)
(= |a$w_buff0_used#10$wclk$8| #b11110101)
(= |a$w_buff0_used#14$rclk$8| #b11110000)
(= |a$w_buff0_used#23$rclk$8| #b11101101)
(= |a$w_buff0_used#26$rclk$8| #b11101100)
(= |a$w_buff0_used#29$rclk$8| #b11110001)
(= |a$w_buff1#4$wclk$8| #b11010100)
(= |a$w_buff1#2$rclk$8| #b11110101)
(= |a$w_buff1#11$wclk$8| #b11101100)
(= |a$w_buff1#1$wclk$8| #b10110011)
(= |a$w_buff1#5$rclk$8| #b11110000)
(= |a$w_buff1#7$rclk$8| #b11101101)
(= |a$w_buff1#9$rclk$8| #b11101100)
(= |a$w_buff1#12$rclk$8| #b11110001)
(= |a$w_buff1_used#9$wclk$8| #b11010100)
(= |a$w_buff1_used#2$rclk$8| #b11110101)
(= |a$w_buff1_used#16$wclk$8| #b11110000)
(= |a$w_buff1_used#19$wclk$8| #b11101101)
(= |a$w_buff1_used#22$wclk$8| #b11101100)
(= |a$w_buff1_used#25$wclk$8| #b11110001)
(= |a$w_buff1_used#1$wclk$8| #b10110100)
(= |a$w_buff1_used#10$rclk$8| #b11110000)
(= |a$w_buff1_used#8$wclk$8| #b11110101)
(= |a$w_buff1_used#17$rclk$8| #b11101101)
(= |a$w_buff1_used#20$rclk$8| #b11101100)
(= |a$w_buff1_used#23$rclk$8| #b11110001)
(= |main$tmp_guard1#5| #b00000000)
(= |y#1$wclk$8| #b10111010)
(= |y#2$rclk$8| #b11010111)
(= |y#4$wclk$8| #b11100101)
(= |y#5$rclk$8| #b11100110)
(= |z#1$wclk$8| #b10111011)
(= |z#2$rclk$8| #b11100111)
(= |z#4$wclk$8| #b11101010)
(= |z#5$rclk$8| #b11101011)
(= |x#4$wclk$8| #b11010101)
(= |__unbuffered_p1_EAX#1$wclk$8| #b10100000)
(= |__unbuffered_p1_EBX#1$wclk$8| #b10100001)
(= |__unbuffered_p2_EAX#1$wclk$8| #b10100010)
(= |__unbuffered_p2_EBX#1$wclk$8| #b10100011)
(= |a$flush_delayed#1$wclk$8| #b10100101)
(= |a$flush_delayed#3$wclk$8| #b11101100)
(= |a$mem_tmp#1$wclk$8| #b10100110)
(= |a$mem_tmp#2$wclk$8| #b11101100)
(= |a$r_buff0_thd1#5$wclk$8| #b11010100)
(= |a$r_buff0_thd1#14$wclk$8| #b11110000)
(= |a$r_buff1_thd1#4$wclk$8| #b11010100)
(= |a$r_buff1_thd1#11$wclk$8| #b11110000)
(= |weak$$choice0#1$wclk$8| #b10110111)
(= |weak$$choice0#2$wclk$8| #b11101100)
(= |weak$$choice2#1$wclk$8| #b10111000)
(= |weak$$choice2#2$wclk$8| #b11101100)
(= t1$45$spwnclk$8 #b10111111)
(= t1$50$spwnclk$8 #b11100100)
(= t1$55$spwnclk$8 #b11101001)
(= |main::1::t59!0@1$wclk$8| #b00000000)
(= |main::1::t60!0@1$wclk$8| #b00100000)
(= |__CPROVER_dead_object#1$wclk$8| #b00110000)
(= |__CPROVER_deallocated#1$wclk$8| #b00111000)
(= |__CPROVER_malloc_is_new_array#1$wclk$8| #b00111001)
(= |__CPROVER_malloc_object#1$wclk$8| #b00111010)
(= |__CPROVER_malloc_size#1$wclk$8| #b00111100)
(= |__CPROVER_memory_leak#1$wclk$8| #b00111101)
(= |__CPROVER_next_thread_id#1$wclk$8| #b00111110)
(= |__CPROVER_pipe_count#1$wclk$8| #b00111111)
(= |a$read_delayed#1$wclk$8| #b10101111)
(= |a$read_delayed_var#1$wclk$8| #b10110000)
(= |main$tmp_guard0#1$wclk$8| #b10110101)
(= |main$tmp_guard1#1$wclk$8| #b10110110)
(= |main::1::t58!0@1#1$wclk$8| #b10111100)
(= |__CPROVER_next_thread_id#2$wclk$8| #b10111101)
(= |main::1::t58!0@1#2$wclk$8| #b10111110)
(= |main::1::t59!0@1#1$wclk$8| #b11100001)
(= |__CPROVER_next_thread_id#3$rclk$8| #b11100010)
(= |__CPROVER_next_thread_id#5$wclk$8| #b11100010)
(= |main::1::t59!0@1#2$wclk$8| #b11100011)
(= |main::1::t60!0@1#1$wclk$8| #b11100110)
(= |__CPROVER_next_thread_id#6$rclk$8| #b11100111)
(= |__CPROVER_next_thread_id#8$wclk$8| #b11100111)
(= |main::1::t60!0@1#2$wclk$8| #b11101000)
(= |main$tmp_guard0#2$wclk$8| #b11110011)
(= |main$tmp_guard0#3$rclk$8| #b11110100)
(= |a$r_buff0_thd0#2$rclk$8| #b11110101)
(= |main$tmp_guard1#3$rclk$8| #b11110110)
(= |main$tmp_guard1#4$wclk$8| #b11110110)
(= |main$tmp_guard1#5$rclk$8| #b11111100)
(= |main$tmp_guard1#6$rclk$8| #b11111110)
(= array_of.0 @fun_7)
(= |__CPROVER_threads_exited#2| @fun_10)
(= |__CPROVER_threads_exited#4| @fun_7)
(= |__CPROVER_threads_exited#6| @fun_11)
(function @fun_7
 (type (Array (_ BitVec 32) (_ BitVec 1)))
 (= (@fun_7 #b00000000000000000000000000000000) #b0)
 (= (@fun_7 #b10000000000000000000000000000000) #b0)
 (default #b1))
(function @fun_10
 (type (Array (_ BitVec 32) (_ BitVec 1)))
 (default #b1))
(function @fun_11
 (type (Array (_ BitVec 32) (_ BitVec 1)))
 (= (@fun_11 #b10000000000000000000000000000000) #b0)
 (default #b1))

real	0m0.027s
user	0m0.020s
sys	0m0.006s
State: AC Run_time: 0.028647422790527344